p edge 1859 1819
e 1 2
e 1 3
e 1 4
e 1 5
e 1 6
e 1 7
e 1 8
e 1 9
e 1 10
e 1 11
e 1 12
e 1 13
e 1 14
e 1 15
e 1 16
e 1 17
e 1 18
e 1 19
e 1 20
e 1 21
e 1 22
e 1 23
e 1 24
e 25 26
e 25 27
e 25 28
e 25 29
e 25 30
e 25 31
e 25 32
e 25 33
e 25 34
e 25 35
e 25 36
e 25 37
e 25 38
e 25 39
e 25 40
e 25 41
e 25 42
e 25 43
e 25 44
e 25 45
e 25 46
e 25 47
e 25 48
e 25 49
e 25 50
e 25 51
e 25 52
e 25 53
e 25 54
e 25 55
e 25 56
e 25 57
e 25 58
e 25 59
e 25 60
e 25 61
e 25 62
e 25 63
e 25 64
e 25 65
e 25 66
e 25 67
e 25 68
e 25 69
e 25 70
e 25 71
e 25 72
e 25 73
e 25 74
e 25 75
e 25 76
e 25 77
e 25 78
e 25 79
e 25 80
e 25 81
e 25 82
e 25 83
e 25 84
e 25 85
e 25 86
e 25 87
e 25 88
e 25 89
e 25 90
e 25 91
e 92 93
e 92 94
e 92 95
e 92 96
e 92 97
e 92 98
e 92 99
e 92 100
e 92 101
e 92 102
e 92 103
e 92 104
e 92 105
e 92 106
e 92 107
e 92 108
e 92 109
e 92 110
e 92 111
e 92 112
e 92 113
e 92 114
e 92 115
e 92 116
e 92 117
e 92 118
e 92 119
e 92 120
e 92 121
e 92 122
e 92 123
e 92 124
e 92 125
e 92 126
e 92 127
e 92 128
e 92 129
e 92 130
e 92 131
e 92 132
e 92 133
e 92 134
e 92 135
e 92 136
e 92 137
e 92 138
e 92 139
e 92 140
e 92 141
e 92 142
e 92 143
e 92 144
e 92 145
e 92 146
e 92 147
e 92 148
e 92 149
e 92 150
e 92 151
e 92 152
e 92 153
e 92 154
e 92 155
e 92 156
e 92 157
e 92 158
e 159 160
e 159 161
e 159 162
e 159 163
e 159 164
e 159 165
e 159 166
e 159 167
e 159 168
e 159 169
e 159 170
e 159 171
e 159 172
e 159 173
e 159 174
e 159 175
e 159 176
e 159 177
e 159 178
e 159 179
e 159 180
e 159 181
e 159 182
e 159 183
e 159 184
e 159 185
e 159 186
e 159 187
e 159 188
e 159 189
e 159 190
e 159 191
e 159 192
e 159 193
e 194 195
e 194 196
e 194 197
e 194 198
e 194 199
e 194 200
e 194 201
e 194 202
e 194 203
e 194 204
e 194 205
e 194 206
e 194 207
e 194 208
e 194 209
e 194 210
e 194 211
e 194 212
e 194 213
e 194 214
e 194 215
e 194 216
e 194 217
e 194 218
e 194 219
e 194 220
e 194 221
e 194 222
e 194 223
e 194 224
e 194 225
e 226 227
e 226 228
e 226 229
e 226 230
e 226 231
e 226 232
e 226 233
e 226 234
e 226 235
e 226 236
e 226 237
e 226 238
e 226 239
e 226 240
e 226 241
e 226 242
e 226 243
e 226 244
e 226 245
e 226 246
e 226 247
e 226 248
e 226 249
e 226 250
e 226 251
e 226 252
e 226 253
e 226 254
e 226 255
e 226 256
e 226 257
e 226 258
e 226 259
e 226 260
e 226 261
e 226 262
e 226 263
e 226 264
e 226 265
e 226 266
e 226 267
e 226 268
e 226 269
e 226 270
e 226 271
e 226 272
e 226 273
e 226 274
e 226 275
e 226 276
e 226 277
e 226 278
e 226 279
e 226 280
e 226 281
e 226 282
e 226 283
e 226 284
e 226 285
e 226 286
e 226 287
e 226 288
e 226 289
e 226 290
e 226 291
e 226 292
e 226 293
e 226 294
e 226 295
e 226 296
e 226 297
e 226 298
e 226 299
e 226 300
e 226 301
e 226 302
e 303 304
e 303 305
e 303 306
e 303 307
e 303 308
e 303 309
e 303 310
e 303 311
e 303 312
e 303 313
e 303 314
e 315 316
e 315 317
e 315 318
e 315 319
e 315 320
e 315 321
e 315 322
e 315 323
e 315 324
e 315 325
e 315 326
e 315 327
e 315 328
e 315 329
e 315 330
e 315 331
e 315 332
e 315 333
e 315 334
e 315 335
e 315 336
e 315 337
e 315 338
e 315 339
e 315 340
e 315 341
e 315 342
e 315 343
e 315 344
e 315 345
e 315 346
e 315 347
e 315 348
e 315 349
e 315 350
e 315 351
e 315 352
e 315 353
e 315 354
e 315 355
e 315 356
e 315 357
e 315 358
e 315 359
e 315 360
e 315 361
e 315 362
e 315 363
e 315 364
e 315 365
e 315 366
e 315 367
e 315 368
e 315 369
e 315 370
e 315 371
e 315 372
e 315 373
e 315 374
e 315 375
e 315 376
e 315 377
e 315 378
e 315 379
e 315 380
e 315 381
e 315 382
e 315 383
e 315 384
e 315 385
e 315 386
e 315 387
e 315 388
e 315 389
e 390 391
e 390 392
e 390 393
e 390 394
e 390 395
e 390 396
e 390 397
e 390 398
e 390 399
e 390 400
e 390 401
e 390 402
e 390 403
e 390 404
e 390 405
e 390 406
e 390 407
e 390 408
e 390 409
e 390 410
e 390 411
e 390 412
e 390 413
e 390 414
e 390 415
e 390 416
e 390 417
e 390 418
e 390 419
e 390 420
e 390 421
e 390 422
e 390 423
e 390 424
e 390 425
e 390 426
e 390 427
e 390 428
e 390 429
e 390 430
e 390 431
e 390 432
e 433 434
e 433 435
e 433 436
e 433 437
e 433 438
e 433 439
e 433 440
e 433 441
e 433 442
e 433 443
e 433 444
e 433 445
e 433 446
e 433 447
e 433 448
e 433 449
e 433 450
e 433 451
e 433 452
e 433 453
e 433 454
e 433 455
e 433 456
e 433 457
e 433 458
e 433 459
e 433 460
e 433 461
e 433 462
e 433 463
e 433 464
e 433 465
e 433 466
e 433 467
e 433 468
e 433 469
e 433 470
e 433 471
e 433 472
e 433 473
e 433 474
e 433 475
e 433 476
e 433 477
e 433 478
e 433 479
e 433 480
e 433 481
e 433 482
e 433 483
e 433 484
e 433 485
e 433 486
e 433 487
e 433 488
e 433 489
e 433 490
e 433 491
e 433 492
e 433 493
e 433 494
e 433 495
e 433 496
e 497 498
e 497 499
e 497 500
e 497 501
e 497 502
e 497 503
e 497 504
e 497 505
e 497 506
e 497 507
e 497 508
e 497 509
e 497 510
e 497 511
e 497 512
e 497 513
e 497 514
e 497 515
e 497 516
e 497 517
e 497 518
e 519 520
e 519 521
e 519 522
e 519 523
e 519 524
e 519 525
e 519 526
e 519 527
e 519 528
e 519 529
e 519 530
e 519 531
e 519 532
e 519 533
e 519 534
e 519 535
e 519 536
e 519 537
e 519 538
e 519 539
e 519 540
e 519 541
e 519 542
e 519 543
e 519 544
e 519 545
e 519 546
e 519 547
e 519 548
e 519 549
e 519 550
e 519 551
e 519 552
e 519 553
e 519 554
e 519 555
e 519 556
e 519 557
e 519 558
e 519 559
e 519 560
e 519 561
e 519 562
e 519 563
e 564 565
e 564 566
e 564 567
e 564 568
e 564 569
e 564 570
e 564 571
e 564 572
e 564 573
e 564 574
e 564 575
e 564 576
e 564 577
e 564 578
e 564 579
e 564 580
e 564 581
e 564 582
e 564 583
e 564 584
e 564 585
e 564 586
e 564 587
e 564 588
e 564 589
e 564 590
e 564 591
e 564 592
e 564 593
e 564 594
e 564 595
e 564 596
e 564 597
e 564 598
e 564 599
e 564 600
e 564 601
e 564 602
e 564 603
e 564 604
e 564 605
e 564 606
e 564 607
e 564 608
e 564 609
e 564 610
e 564 611
e 564 612
e 564 613
e 564 614
e 564 615
e 564 616
e 564 617
e 564 618
e 564 619
e 564 620
e 564 621
e 564 622
e 564 623
e 564 624
e 564 625
e 564 626
e 627 628
e 627 629
e 627 630
e 627 631
e 627 632
e 627 633
e 627 634
e 627 635
e 627 636
e 627 637
e 627 638
e 627 639
e 627 640
e 627 641
e 627 642
e 627 643
e 627 644
e 627 645
e 627 646
e 627 647
e 627 648
e 627 649
e 627 650
e 627 651
e 627 652
e 627 653
e 627 654
e 627 655
e 627 656
e 657 658
e 657 659
e 657 660
e 657 661
e 657 662
e 657 663
e 657 664
e 657 665
e 657 666
e 657 667
e 657 668
e 657 669
e 657 670
e 657 671
e 657 672
e 673 674
e 673 675
e 673 676
e 673 677
e 673 678
e 673 679
e 673 680
e 673 681
e 673 682
e 673 683
e 673 684
e 673 685
e 673 686
e 673 687
e 673 688
e 673 689
e 673 690
e 673 691
e 673 692
e 673 693
e 673 694
e 673 695
e 673 696
e 673 697
e 673 698
e 673 699
e 673 700
e 673 701
e 673 702
e 673 703
e 673 704
e 673 705
e 673 706
e 673 707
e 673 708
e 673 709
e 673 710
e 673 711
e 673 712
e 673 713
e 673 714
e 673 715
e 673 716
e 673 717
e 673 718
e 673 719
e 720 721
e 720 722
e 720 723
e 720 724
e 720 725
e 720 726
e 720 727
e 720 728
e 720 729
e 720 730
e 720 731
e 720 732
e 720 733
e 720 734
e 720 735
e 720 736
e 720 737
e 720 738
e 720 739
e 720 740
e 720 741
e 720 742
e 720 743
e 720 744
e 720 745
e 720 746
e 720 747
e 720 748
e 720 749
e 720 750
e 720 751
e 720 752
e 720 753
e 720 754
e 720 755
e 720 756
e 720 757
e 720 758
e 720 759
e 720 760
e 720 761
e 720 762
e 720 763
e 720 764
e 720 765
e 720 766
e 720 767
e 720 768
e 720 769
e 720 770
e 720 771
e 720 772
e 720 773
e 720 774
e 720 775
e 720 776
e 720 777
e 720 778
e 720 779
e 780 781
e 780 782
e 780 783
e 780 784
e 780 785
e 780 786
e 780 787
e 780 788
e 780 789
e 780 790
e 780 791
e 780 792
e 793 794
e 793 795
e 793 796
e 793 797
e 793 798
e 793 799
e 793 800
e 793 801
e 793 802
e 793 803
e 793 804
e 793 805
e 793 806
e 793 807
e 793 808
e 793 809
e 793 810
e 793 811
e 793 812
e 793 813
e 793 814
e 793 815
e 793 816
e 793 817
e 793 818
e 793 819
e 793 820
e 793 821
e 793 822
e 793 823
e 793 824
e 793 825
e 793 826
e 793 827
e 793 828
e 793 829
e 793 830
e 793 831
e 793 832
e 793 833
e 793 834
e 793 835
e 793 836
e 793 837
e 793 838
e 793 839
e 793 840
e 793 841
e 793 842
e 793 843
e 793 844
e 793 845
e 793 846
e 793 847
e 793 848
e 793 849
e 793 850
e 793 851
e 793 852
e 793 853
e 793 854
e 793 855
e 856 857
e 856 858
e 856 859
e 856 860
e 856 861
e 856 862
e 856 863
e 856 864
e 856 865
e 856 866
e 856 867
e 856 868
e 856 869
e 856 870
e 856 871
e 856 872
e 856 873
e 856 874
e 856 875
e 856 876
e 877 878
e 877 879
e 877 880
e 877 881
e 877 882
e 877 883
e 877 884
e 877 885
e 877 886
e 877 887
e 877 888
e 877 889
e 877 890
e 877 891
e 877 892
e 877 893
e 877 894
e 877 895
e 877 896
e 877 897
e 877 898
e 877 899
e 877 900
e 877 901
e 877 902
e 877 903
e 877 904
e 877 905
e 877 906
e 877 907
e 877 908
e 877 909
e 877 910
e 877 911
e 877 912
e 877 913
e 877 914
e 877 915
e 877 916
e 877 917
e 877 918
e 877 919
e 877 920
e 877 921
e 877 922
e 877 923
e 877 924
e 877 925
e 877 926
e 877 927
e 877 928
e 877 929
e 877 930
e 877 931
e 877 932
e 877 933
e 934 935
e 934 936
e 934 937
e 934 938
e 934 939
e 934 940
e 934 941
e 934 942
e 934 943
e 934 944
e 934 945
e 934 946
e 934 947
e 948 949
e 948 950
e 948 951
e 948 952
e 948 953
e 948 954
e 948 955
e 948 956
e 948 957
e 948 958
e 948 959
e 948 960
e 948 961
e 948 962
e 948 963
e 948 964
e 948 965
e 966 967
e 966 968
e 966 969
e 966 970
e 966 971
e 966 972
e 966 973
e 966 974
e 966 975
e 966 976
e 966 977
e 966 978
e 966 979
e 966 980
e 966 981
e 966 982
e 966 983
e 966 984
e 966 985
e 966 986
e 966 987
e 966 988
e 966 989
e 966 990
e 966 991
e 966 992
e 966 993
e 966 994
e 966 995
e 966 996
e 966 997
e 966 998
e 966 999
e 966 1000
e 966 1001
e 966 1002
e 966 1003
e 1004 1005
e 1004 1006
e 1004 1007
e 1004 1008
e 1004 1009
e 1004 1010
e 1004 1011
e 1004 1012
e 1004 1013
e 1004 1014
e 1004 1015
e 1004 1016
e 1004 1017
e 1004 1018
e 1004 1019
e 1004 1020
e 1004 1021
e 1004 1022
e 1004 1023
e 1004 1024
e 1004 1025
e 1004 1026
e 1004 1027
e 1004 1028
e 1004 1029
e 1004 1030
e 1004 1031
e 1004 1032
e 1004 1033
e 1004 1034
e 1004 1035
e 1004 1036
e 1004 1037
e 1004 1038
e 1004 1039
e 1004 1040
e 1004 1041
e 1004 1042
e 1004 1043
e 1004 1044
e 1004 1045
e 1004 1046
e 1004 1047
e 1004 1048
e 1004 1049
e 1004 1050
e 1004 1051
e 1004 1052
e 1004 1053
e 1004 1054
e 1055 1056
e 1055 1057
e 1055 1058
e 1055 1059
e 1055 1060
e 1055 1061
e 1055 1062
e 1055 1063
e 1055 1064
e 1055 1065
e 1055 1066
e 1055 1067
e 1055 1068
e 1055 1069
e 1055 1070
e 1055 1071
e 1055 1072
e 1055 1073
e 1055 1074
e 1055 1075
e 1055 1076
e 1055 1077
e 1055 1078
e 1055 1079
e 1055 1080
e 1055 1081
e 1055 1082
e 1055 1083
e 1055 1084
e 1055 1085
e 1055 1086
e 1055 1087
e 1055 1088
e 1055 1089
e 1055 1090
e 1055 1091
e 1055 1092
e 1055 1093
e 1055 1094
e 1055 1095
e 1055 1096
e 1097 1098
e 1097 1099
e 1097 1100
e 1097 1101
e 1097 1102
e 1097 1103
e 1097 1104
e 1097 1105
e 1097 1106
e 1097 1107
e 1097 1108
e 1097 1109
e 1097 1110
e 1097 1111
e 1097 1112
e 1097 1113
e 1097 1114
e 1097 1115
e 1097 1116
e 1097 1117
e 1097 1118
e 1097 1119
e 1097 1120
e 1097 1121
e 1097 1122
e 1097 1123
e 1097 1124
e 1097 1125
e 1097 1126
e 1097 1127
e 1097 1128
e 1097 1129
e 1097 1130
e 1097 1131
e 1097 1132
e 1097 1133
e 1097 1134
e 1097 1135
e 1097 1136
e 1097 1137
e 1097 1138
e 1097 1139
e 1097 1140
e 1097 1141
e 1097 1142
e 1097 1143
e 1097 1144
e 1097 1145
e 1097 1146
e 1097 1147
e 1097 1148
e 1097 1149
e 1097 1150
e 1097 1151
e 1097 1152
e 1153 1154
e 1153 1155
e 1153 1156
e 1153 1157
e 1153 1158
e 1153 1159
e 1153 1160
e 1153 1161
e 1153 1162
e 1153 1163
e 1153 1164
e 1153 1165
e 1153 1166
e 1153 1167
e 1153 1168
e 1153 1169
e 1153 1170
e 1153 1171
e 1153 1172
e 1153 1173
e 1153 1174
e 1153 1175
e 1153 1176
e 1153 1177
e 1153 1178
e 1153 1179
e 1153 1180
e 1153 1181
e 1153 1182
e 1153 1183
e 1153 1184
e 1153 1185
e 1153 1186
e 1153 1187
e 1153 1188
e 1153 1189
e 1153 1190
e 1153 1191
e 1153 1192
e 1153 1193
e 1153 1194
e 1153 1195
e 1153 1196
e 1153 1197
e 1153 1198
e 1153 1199
e 1153 1200
e 1153 1201
e 1153 1202
e 1153 1203
e 1153 1204
e 1153 1205
e 1153 1206
e 1153 1207
e 1153 1208
e 1153 1209
e 1153 1210
e 1153 1211
e 1153 1212
e 1153 1213
e 1153 1214
e 1153 1215
e 1153 1216
e 1217 1218
e 1217 1219
e 1217 1220
e 1217 1221
e 1217 1222
e 1217 1223
e 1217 1224
e 1217 1225
e 1217 1226
e 1217 1227
e 1217 1228
e 1217 1229
e 1217 1230
e 1217 1231
e 1217 1232
e 1217 1233
e 1234 1235
e 1234 1236
e 1234 1237
e 1234 1238
e 1234 1239
e 1234 1240
e 1234 1241
e 1234 1242
e 1234 1243
e 1234 1244
e 1234 1245
e 1234 1246
e 1234 1247
e 1234 1248
e 1234 1249
e 1234 1250
e 1234 1251
e 1234 1252
e 1234 1253
e 1234 1254
e 1234 1255
e 1234 1256
e 1234 1257
e 1234 1258
e 1234 1259
e 1234 1260
e 1234 1261
e 1234 1262
e 1234 1263
e 1234 1264
e 1234 1265
e 1234 1266
e 1234 1267
e 1234 1268
e 1234 1269
e 1234 1270
e 1234 1271
e 1234 1272
e 1234 1273
e 1234 1274
e 1234 1275
e 1234 1276
e 1234 1277
e 1234 1278
e 1234 1279
e 1234 1280
e 1234 1281
e 1234 1282
e 1234 1283
e 1234 1284
e 1234 1285
e 1234 1286
e 1234 1287
e 1234 1288
e 1234 1289
e 1234 1290
e 1234 1291
e 1234 1292
e 1234 1293
e 1234 1294
e 1234 1295
e 1234 1296
e 1234 1297
e 1234 1298
e 1234 1299
e 1234 1300
e 1234 1301
e 1234 1302
e 1234 1303
e 1234 1304
e 1305 1306
e 1305 1307
e 1305 1308
e 1305 1309
e 1305 1310
e 1305 1311
e 1305 1312
e 1305 1313
e 1305 1314
e 1305 1315
e 1305 1316
e 1305 1317
e 1305 1318
e 1305 1319
e 1305 1320
e 1305 1321
e 1305 1322
e 1305 1323
e 1305 1324
e 1305 1325
e 1305 1326
e 1305 1327
e 1305 1328
e 1305 1329
e 1305 1330
e 1305 1331
e 1305 1332
e 1305 1333
e 1305 1334
e 1305 1335
e 1305 1336
e 1305 1337
e 1305 1338
e 1305 1339
e 1305 1340
e 1305 1341
e 1305 1342
e 1305 1343
e 1305 1344
e 1305 1345
e 1305 1346
e 1305 1347
e 1305 1348
e 1305 1349
e 1305 1350
e 1305 1351
e 1305 1352
e 1305 1353
e 1305 1354
e 1305 1355
e 1305 1356
e 1305 1357
e 1358 1359
e 1358 1360
e 1358 1361
e 1358 1362
e 1358 1363
e 1358 1364
e 1358 1365
e 1358 1366
e 1358 1367
e 1358 1368
e 1358 1369
e 1358 1370
e 1358 1371
e 1358 1372
e 1358 1373
e 1358 1374
e 1358 1375
e 1358 1376
e 1358 1377
e 1358 1378
e 1358 1379
e 1358 1380
e 1358 1381
e 1358 1382
e 1358 1383
e 1358 1384
e 1358 1385
e 1358 1386
e 1358 1387
e 1358 1388
e 1358 1389
e 1358 1390
e 1358 1391
e 1358 1392
e 1358 1393
e 1358 1394
e 1358 1395
e 1358 1396
e 1358 1397
e 1358 1398
e 1358 1399
e 1358 1400
e 1358 1401
e 1358 1402
e 1358 1403
e 1358 1404
e 1358 1405
e 1358 1406
e 1358 1407
e 1358 1408
e 1358 1409
e 1358 1410
e 1358 1411
e 1358 1412
e 1358 1413
e 1358 1414
e 1358 1415
e 1358 1416
e 1358 1417
e 1358 1418
e 1358 1419
e 1358 1420
e 1358 1421
e 1358 1422
e 1358 1423
e 1358 1424
e 1358 1425
e 1358 1426
e 1358 1427
e 1428 1429
e 1428 1430
e 1428 1431
e 1428 1432
e 1428 1433
e 1428 1434
e 1428 1435
e 1428 1436
e 1428 1437
e 1428 1438
e 1428 1439
e 1428 1440
e 1428 1441
e 1428 1442
e 1428 1443
e 1428 1444
e 1428 1445
e 1428 1446
e 1428 1447
e 1428 1448
e 1428 1449
e 1428 1450
e 1428 1451
e 1428 1452
e 1428 1453
e 1428 1454
e 1428 1455
e 1428 1456
e 1428 1457
e 1428 1458
e 1428 1459
e 1428 1460
e 1428 1461
e 1428 1462
e 1428 1463
e 1428 1464
e 1428 1465
e 1428 1466
e 1428 1467
e 1428 1468
e 1428 1469
e 1428 1470
e 1428 1471
e 1428 1472
e 1428 1473
e 1428 1474
e 1428 1475
e 1428 1476
e 1428 1477
e 1428 1478
e 1428 1479
e 1428 1480
e 1428 1481
e 1428 1482
e 1428 1483
e 1428 1484
e 1428 1485
e 1428 1486
e 1428 1487
e 1428 1488
e 1428 1489
e 1428 1490
e 1428 1491
e 1428 1492
e 1428 1493
e 1428 1494
e 1428 1495
e 1428 1496
e 1428 1497
e 1428 1498
e 1428 1499
e 1500 1501
e 1500 1502
e 1500 1503
e 1500 1504
e 1500 1505
e 1500 1506
e 1500 1507
e 1500 1508
e 1500 1509
e 1500 1510
e 1500 1511
e 1500 1512
e 1500 1513
e 1500 1514
e 1500 1515
e 1500 1516
e 1500 1517
e 1500 1518
e 1500 1519
e 1500 1520
e 1500 1521
e 1500 1522
e 1500 1523
e 1500 1524
e 1500 1525
e 1500 1526
e 1500 1527
e 1500 1528
e 1500 1529
e 1530 1531
e 1530 1532
e 1530 1533
e 1530 1534
e 1530 1535
e 1530 1536
e 1530 1537
e 1530 1538
e 1530 1539
e 1530 1540
e 1530 1541
e 1530 1542
e 1530 1543
e 1530 1544
e 1530 1545
e 1530 1546
e 1530 1547
e 1530 1548
e 1530 1549
e 1530 1550
e 1530 1551
e 1530 1552
e 1530 1553
e 1530 1554
e 1530 1555
e 1530 1556
e 1530 1557
e 1530 1558
e 1530 1559
e 1530 1560
e 1530 1561
e 1530 1562
e 1530 1563
e 1530 1564
e 1530 1565
e 1530 1566
e 1530 1567
e 1530 1568
e 1530 1569
e 1530 1570
e 1530 1571
e 1530 1572
e 1530 1573
e 1530 1574
e 1530 1575
e 1530 1576
e 1530 1577
e 1530 1578
e 1530 1579
e 1530 1580
e 1530 1581
e 1530 1582
e 1530 1583
e 1530 1584
e 1530 1585
e 1530 1586
e 1530 1587
e 1530 1588
e 1530 1589
e 1530 1590
e 1530 1591
e 1530 1592
e 1530 1593
e 1530 1594
e 1530 1595
e 1530 1596
e 1530 1597
e 1530 1598
e 1530 1599
e 1530 1600
e 1530 1601
e 1530 1602
e 1530 1603
e 1530 1604
e 1530 1605
e 1530 1606
e 1530 1607
e 1530 1608
e 1609 1610
e 1609 1611
e 1609 1612
e 1609 1613
e 1609 1614
e 1609 1615
e 1609 1616
e 1609 1617
e 1609 1618
e 1609 1619
e 1609 1620
e 1609 1621
e 1609 1622
e 1609 1623
e 1609 1624
e 1609 1625
e 1609 1626
e 1609 1627
e 1609 1628
e 1609 1629
e 1609 1630
e 1609 1631
e 1609 1632
e 1609 1633
e 1609 1634
e 1609 1635
e 1609 1636
e 1609 1637
e 1609 1638
e 1609 1639
e 1609 1640
e 1609 1641
e 1609 1642
e 1609 1643
e 1609 1644
e 1609 1645
e 1609 1646
e 1609 1647
e 1609 1648
e 1609 1649
e 1609 1650
e 1609 1651
e 1609 1652
e 1609 1653
e 1609 1654
e 1609 1655
e 1609 1656
e 1609 1657
e 1609 1658
e 1609 1659
e 1609 1660
e 1609 1661
e 1609 1662
e 1609 1663
e 1609 1664
e 1609 1665
e 1666 1667
e 1666 1668
e 1666 1669
e 1666 1670
e 1666 1671
e 1666 1672
e 1666 1673
e 1666 1674
e 1666 1675
e 1666 1676
e 1666 1677
e 1666 1678
e 1666 1679
e 1666 1680
e 1666 1681
e 1666 1682
e 1666 1683
e 1666 1684
e 1666 1685
e 1666 1686
e 1666 1687
e 1666 1688
e 1666 1689
e 1666 1690
e 1666 1691
e 1666 1692
e 1666 1693
e 1666 1694
e 1666 1695
e 1666 1696
e 1666 1697
e 1666 1698
e 1666 1699
e 1666 1700
e 1666 1701
e 1666 1702
e 1666 1703
e 1666 1704
e 1666 1705
e 1666 1706
e 1666 1707
e 1666 1708
e 1709 1710
e 1709 1711
e 1709 1712
e 1709 1713
e 1709 1714
e 1709 1715
e 1709 1716
e 1709 1717
e 1709 1718
e 1709 1719
e 1709 1720
e 1709 1721
e 1709 1722
e 1709 1723
e 1709 1724
e 1709 1725
e 1709 1726
e 1709 1727
e 1709 1728
e 1709 1729
e 1709 1730
e 1709 1731
e 1709 1732
e 1709 1733
e 1709 1734
e 1709 1735
e 1709 1736
e 1709 1737
e 1709 1738
e 1709 1739
e 1709 1740
e 1709 1741
e 1709 1742
e 1709 1743
e 1709 1744
e 1709 1745
e 1709 1746
e 1709 1747
e 1709 1748
e 1709 1749
e 1709 1750
e 1709 1751
e 1709 1752
e 1709 1753
e 1709 1754
e 1709 1755
e 1709 1756
e 1709 1757
e 1709 1758
e 1759 1760
e 1759 1761
e 1759 1762
e 1759 1763
e 1759 1764
e 1759 1765
e 1759 1766
e 1759 1767
e 1759 1768
e 1759 1769
e 1759 1770
e 1759 1771
e 1759 1772
e 1759 1773
e 1759 1774
e 1759 1775
e 1759 1776
e 1759 1777
e 1759 1778
e 1779 1780
e 1779 1781
e 1779 1782
e 1779 1783
e 1779 1784
e 1779 1785
e 1779 1786
e 1779 1787
e 1779 1788
e 1779 1789
e 1779 1790
e 1779 1791
e 1779 1792
e 1779 1793
e 1779 1794
e 1779 1795
e 1779 1796
e 1779 1797
e 1779 1798
e 1779 1799
e 1779 1800
e 1779 1801
e 1779 1802
e 1779 1803
e 1779 1804
e 1779 1805
e 1779 1806
e 1779 1807
e 1779 1808
e 1779 1809
e 1779 1810
e 1779 1811
e 1779 1812
e 1779 1813
e 1779 1814
e 1779 1815
e 1779 1816
e 1779 1817
e 1779 1818
e 1779 1819
e 1779 1820
e 1779 1821
e 1779 1822
e 1779 1823
e 1779 1824
e 1779 1825
e 1779 1826
e 1779 1827
e 1779 1828
e 1779 1829
e 1779 1830
e 1779 1831
e 1779 1832
e 1779 1833
e 1779 1834
e 1779 1835
e 1779 1836
e 1779 1837
e 1779 1838
e 1779 1839
e 1779 1840
e 1779 1841
e 1779 1842
e 1779 1843
e 1779 1844
e 1779 1845
e 1779 1846
e 1779 1847
e 1779 1848
e 1779 1849
e 1779 1850
e 1779 1851
e 1779 1852
e 1779 1853
e 1779 1854
e 1779 1855
e 1779 1856
e 1779 1857
e 1779 1858
e 1779 1859
